20
1 0 2
2 0 4
2 1 1
3 0 2
3 1 2
3 2 2
4 0 3
4 1 3
4 2 3
4 3 2
5 0 1
5 1 2
5 2 1
5 3 5
5 4 3
6 0 6
6 1 5
6 2 1
6 3 6
6 4 5
6 5 3
7 0 6
7 1 5
7 2 6
7 3 3
7 4 1
7 5 1
7 6 6
8 0 2
8 1 1
8 2 4
8 3 2
8 4 6
8 5 4
8 6 2
8 7 6
9 0 6
9 1 2
9 2 2
9 3 2
9 4 3
9 5 4
9 6 4
9 7 5
9 8 1
10 0 3
10 1 1
10 2 1
10 3 6
10 4 4
10 5 1
10 6 1
10 7 3
10 8 5
10 9 1
11 0 5
11 1 5
11 2 4
11 3 5
11 4 4
11 5 1
11 6 4
11 7 2
11 8 4
11 9 5
11 10 3
12 0 6
12 1 3
12 2 1
12 3 6
12 4 5
12 5 5
12 6 1
12 7 6
12 8 2
12 9 6
12 10 6
12 11 4
13 0 1
13 1 1
13 2 4
13 3 4
13 4 2
13 5 3
13 6 5
13 7 6
13 8 2
13 9 3
13 10 5
13 11 2
13 12 5
14 0 3
14 1 1
14 2 6
14 3 5
14 4 1
14 5 6
14 6 2
14 7 6
14 8 5
14 9 5
14 10 1
14 11 4
14 12 4
14 13 3
15 0 1
15 1 2
15 2 4
15 3 6
15 4 6
15 5 5
15 6 6
15 7 6
15 8 6
15 9 3
15 10 3
15 11 2
15 12 4
15 13 4
15 14 1
16 0 1
16 1 4
16 2 4
16 3 6
16 4 5
16 5 2
16 6 6
16 7 1
16 8 1
16 9 5
16 10 6
16 11 3
16 12 6
16 13 4
16 14 3
16 15 5
17 0 3
17 1 6
17 2 2
17 3 6
17 4 5
17 5 4
17 6 1
17 7 6
17 8 2
17 9 4
17 10 3
17 11 6
17 12 5
17 13 3
17 14 6
17 15 4
17 16 2
18 0 6
18 1 2
18 2 5
18 3 1
18 4 1
18 5 4
18 6 3
18 7 3
18 8 2
18 9 6
18 10 2
18 11 3
18 12 5
18 13 6
18 14 1
18 15 1
18 16 5
18 17 6
19 0 6
19 1 4
19 2 6
19 3 4
19 4 4
19 5 3
19 6 2
19 7 2
19 8 6
19 9 6
19 10 3
19 11 4
19 12 3
19 13 2
19 14 2
19 15 5
19 16 2
19 17 3
19 18 3
